sat
(:max-memory         18.52
 :memory             18.42
 :nlsat-arith-var    3
 :nlsat-atoms        45
 :nlsat-bool-var     1
 :nlsat-clauses      43
 :nlsat-conflicts    1
 :nlsat-decisions    3
 :nlsat-propagations 32
 :nlsat-stages       4
 :num-allocs         69438
 :rlimit-count       13278
 :time               0.01
 :total-time         0.01)
